\ LP format - for model browsing. Use MPS format to capture full model detail.
Minimize
  880 b_0 + 880 b_1 + 880 b_2 + 880 b_3 + 880 b_4 + 880 b_5 + 880 b_6
   + 100 u_0 + 100 u_1 + 100 u_2 + 100 u_3 + 100 u_4 + 100 u_5 + 100 u_6
Subject To
 R0: 15 x_00 + 18 x_10 + 18 x_20 + 9 x_30 + 18 x_40 + 12 x_50 + 15 x_60
   + 12 x_70 + 18 x_80 + 9 x_90 + 12 x_100 + 12 x_110 + 12 x_120 + s_0
   - e_0 = 225
 R1: 15 x_01 + 9 x_11 + 15 x_21 + 12 x_31 + 15 x_41 + 9 x_51 + 15 x_61
   + 12 x_71 + 15 x_81 + 9 x_91 + 15 x_101 + 18 x_111 + 18 x_121 + 15 x_131
   + 18 x_141 + 15 x_151 + 15 x_161 + 15 x_171 + 9 x_181 + 12 x_191
   + 12 x_201 + 18 x_211 + 18 x_221 + s_1 - e_1 = 225
 R2: 18 x_02 + 12 x_12 + 15 x_22 + 12 x_32 + 18 x_42 + 15 x_52 + 9 x_62
   + 18 x_72 + 18 x_82 + 9 x_92 + 12 x_102 + 15 x_112 + 15 x_122 + 15 x_132
   + 9 x_142 + 15 x_152 + 12 x_162 + 18 x_172 + 18 x_182 + s_2 - e_2 = 225
 R3: 15 x_03 + 18 x_13 + 9 x_23 + 12 x_33 + 18 x_43 + 12 x_53 + 18 x_63
   + 15 x_73 + 12 x_83 + 15 x_93 + s_3 - e_3 = 225
 R4: 18 x_04 + 12 x_14 + 15 x_24 + 18 x_34 + 12 x_44 + 12 x_54 + 12 x_64
   + 18 x_74 + 15 x_84 + 15 x_94 + 12 x_104 + 9 x_114 + 18 x_124 + 12 x_134
   + 18 x_144 + 9 x_154 + 9 x_164 + 15 x_174 + 18 x_184 + 15 x_194
   + 12 x_204 + 12 x_214 + 12 x_224 + 9 x_234 + 15 x_244 + 18 x_254
   + 12 x_264 + 15 x_274 + s_4 - e_4 = 225
 R5: 18 x_05 + 15 x_15 + 9 x_25 + 9 x_35 + 12 x_45 + 12 x_55 + 12 x_65
   + 18 x_75 + 9 x_85 + 12 x_95 + 18 x_105 + 18 x_115 + 18 x_125 + 18 x_135
   + 18 x_145 + 18 x_155 + 12 x_165 + 18 x_175 + 15 x_185 + 18 x_195
   + 12 x_205 + 12 x_215 + 18 x_225 + 12 x_235 + 18 x_245 + 18 x_255
   + 18 x_265 + 9 x_275 + 15 x_285 + 12 x_295 + 18 x_305 + 12 x_315 + s_5
   - e_5 = 225
 R6: 9 x_06 + 9 x_16 + 12 x_26 + 15 x_36 + 18 x_46 + 12 x_56 + 9 x_66
   + 15 x_76 + 18 x_86 + 15 x_96 + 15 x_106 + 9 x_116 + 18 x_126 + 15 x_136
   + 15 x_146 + s_6 - e_6 = 225
 R7: 1e+06 b_0 - e_0 >= 0
 R8: 1e+06 b_1 - e_1 >= 0
 R9: 1e+06 b_2 - e_2 >= 0
 R10: 1e+06 b_3 - e_3 >= 0
 R11: 1e+06 b_4 - e_4 >= 0
 R12: 1e+06 b_5 - e_5 >= 0
 R13: 1e+06 b_6 - e_6 >= 0
 R14: e_0 <= 45
 R15: e_1 <= 45
 R16: e_2 <= 45
 R17: e_3 <= 45
 R18: e_4 <= 45
 R19: e_5 <= 45
 R20: e_6 <= 45
 R21: x_00 <= 1
 R22: x_10 <= 1
 R23: x_20 <= 1
 R24: x_30 <= 1
 R25: x_40 <= 1
 R26: x_50 <= 1
 R27: x_60 <= 1
 R28: x_70 <= 1
 R29: x_80 <= 1
 R30: x_90 <= 1
 R31: x_100 <= 1
 R32: x_110 <= 1
 R33: x_120 <= 1
 R34: x_01 <= 1
 R35: x_11 <= 1
 R36: x_21 <= 1
 R37: x_31 <= 1
 R38: x_41 <= 1
 R39: x_51 <= 1
 R40: x_61 <= 1
 R41: x_71 <= 1
 R42: x_81 <= 1
 R43: x_91 <= 1
 R44: x_101 <= 1
 R45: x_111 <= 1
 R46: x_121 <= 1
 R47: x_131 <= 1
 R48: x_141 <= 1
 R49: x_151 <= 1
 R50: x_161 <= 1
 R51: x_171 <= 1
 R52: x_181 <= 1
 R53: x_191 <= 1
 R54: x_201 <= 1
 R55: x_211 <= 1
 R56: x_221 <= 1
 R57: x_02 <= 1
 R58: x_12 <= 1
 R59: x_22 <= 1
 R60: x_32 <= 1
 R61: x_42 <= 1
 R62: x_52 <= 1
 R63: x_62 <= 1
 R64: x_72 <= 1
 R65: x_82 <= 1
 R66: x_92 <= 1
 R67: x_102 <= 1
 R68: x_112 <= 1
 R69: x_122 <= 1
 R70: x_132 <= 1
 R71: x_142 <= 1
 R72: x_152 <= 1
 R73: x_162 <= 1
 R74: x_172 <= 1
 R75: x_182 <= 1
 R76: x_03 <= 1
 R77: x_13 <= 1
 R78: x_23 <= 1
 R79: x_33 <= 1
 R80: x_43 <= 1
 R81: x_53 <= 1
 R82: x_63 <= 1
 R83: x_73 <= 1
 R84: x_83 <= 1
 R85: x_93 <= 1
 R86: x_04 <= 1
 R87: x_14 <= 1
 R88: x_24 <= 1
 R89: x_34 <= 1
 R90: x_44 <= 1
 R91: x_54 <= 1
 R92: x_64 <= 1
 R93: x_74 <= 1
 R94: x_84 <= 1
 R95: x_94 <= 1
 R96: x_104 <= 1
 R97: x_114 <= 1
 R98: x_124 <= 1
 R99: x_134 <= 1
 R100: x_144 <= 1
 R101: x_154 <= 1
 R102: x_164 <= 1
 R103: x_174 <= 1
 R104: x_184 <= 1
 R105: x_194 <= 1
 R106: x_204 <= 1
 R107: x_214 <= 1
 R108: x_224 <= 1
 R109: x_234 <= 1
 R110: x_244 <= 1
 R111: x_254 <= 1
 R112: x_264 <= 1
 R113: x_274 <= 1
 R114: x_05 <= 1
 R115: x_15 <= 1
 R116: x_25 <= 1
 R117: x_35 <= 1
 R118: x_45 <= 1
 R119: x_55 <= 1
 R120: x_65 <= 1
 R121: x_75 <= 1
 R122: x_85 <= 1
 R123: x_95 <= 1
 R124: x_105 <= 1
 R125: x_115 <= 1
 R126: x_125 <= 1
 R127: x_135 <= 1
 R128: x_145 <= 1
 R129: x_155 <= 1
 R130: x_165 <= 1
 R131: x_175 <= 1
 R132: x_185 <= 1
 R133: x_195 <= 1
 R134: x_205 <= 1
 R135: x_215 <= 1
 R136: x_225 <= 1
 R137: x_235 <= 1
 R138: x_245 <= 1
 R139: x_255 <= 1
 R140: x_265 <= 1
 R141: x_275 <= 1
 R142: x_285 <= 1
 R143: x_295 <= 1
 R144: x_305 <= 1
 R145: x_315 <= 1
 R146: x_06 <= 1
 R147: x_16 <= 1
 R148: x_26 <= 1
 R149: x_36 <= 1
 R150: x_46 <= 1
 R151: x_56 <= 1
 R152: x_66 <= 1
 R153: x_76 <= 1
 R154: x_86 <= 1
 R155: x_96 <= 1
 R156: x_106 <= 1
 R157: x_116 <= 1
 R158: x_126 <= 1
 R159: x_136 <= 1
 R160: x_146 <= 1
 R161: 6 x_00 + 8 x_10 + 8 x_20 + 2 x_30 + 7 x_40 + 4 x_50 + 5 x_60
   + 3 x_70 + 8 x_80 + 2 x_90 + 3 x_100 + 3 x_110 + 3 x_120 + u_0 = 62
 R162: 6 x_01 + 2 x_11 + 5 x_21 + 3 x_31 + 5 x_41 + 2 x_51 + 5 x_61
   + 3 x_71 + 6 x_81 + 2 x_91 + 5 x_101 + 7 x_111 + 8 x_121 + 6 x_131
   + 8 x_141 + 6 x_151 + 6 x_161 + 5 x_171 + 2 x_181 + 4 x_191 + 3 x_201
   + 7 x_211 + 7 x_221 + u_1 = 113
 R163: 7 x_02 + 3 x_12 + 5 x_22 + 4 x_32 + 7 x_42 + 6 x_52 + 2 x_62
   + 7 x_72 + 7 x_82 + 2 x_92 + 3 x_102 + 5 x_112 + 6 x_122 + 6 x_132
   + 2 x_142 + 5 x_152 + 4 x_162 + 7 x_172 + 8 x_182 + u_2 = 96
 R164: 5 x_03 + 7 x_13 + 2 x_23 + 3 x_33 + 8 x_43 + 3 x_53 + 7 x_63
   + 5 x_73 + 4 x_83 + 5 x_93 + u_3 = 49
 R165: 7 x_04 + 4 x_14 + 6 x_24 + 7 x_34 + 4 x_44 + 3 x_54 + 4 x_64
   + 7 x_74 + 5 x_84 + 5 x_94 + 4 x_104 + 2 x_114 + 7 x_124 + 4 x_134
   + 8 x_144 + 2 x_154 + 2 x_164 + 6 x_174 + 7 x_184 + 6 x_194 + 4 x_204
   + 3 x_214 + 3 x_224 + 2 x_234 + 5 x_244 + 7 x_254 + 4 x_264 + 6 x_274
   + u_4 = 134
 R166: 7 x_05 + 6 x_15 + 2 x_25 + 2 x_35 + 4 x_45 + 4 x_55 + 3 x_65
   + 7 x_75 + 2 x_85 + 3 x_95 + 8 x_105 + 8 x_115 + 8 x_125 + 8 x_135
   + 7 x_145 + 7 x_155 + 4 x_165 + 8 x_175 + 6 x_185 + 7 x_195 + 3 x_205
   + 3 x_215 + 7 x_225 + 3 x_235 + 8 x_245 + 8 x_255 + 8 x_265 + 2 x_275
   + 6 x_285 + 4 x_295 + 7 x_305 + 4 x_315 + u_5 = 174
 R167: 2 x_06 + 2 x_16 + 3 x_26 + 5 x_36 + 8 x_46 + 4 x_56 + 2 x_66
   + 6 x_76 + 8 x_86 + 6 x_96 + 5 x_106 + 2 x_116 + 8 x_126 + 6 x_136
   + 5 x_146 + u_6 = 72
Bounds
Binaries
 x_00 x_10 x_20 x_30 x_40 x_50 x_60 x_70 x_80 x_90 x_100 x_110 x_120 x_01
 x_11 x_21 x_31 x_41 x_51 x_61 x_71 x_81 x_91 x_101 x_111 x_121 x_131 x_141
 x_151 x_161 x_171 x_181 x_191 x_201 x_211 x_221 x_02 x_12 x_22 x_32 x_42
 x_52 x_62 x_72 x_82 x_92 x_102 x_112 x_122 x_132 x_142 x_152 x_162 x_172
 x_182 x_03 x_13 x_23 x_33 x_43 x_53 x_63 x_73 x_83 x_93 x_04 x_14 x_24
 x_34 x_44 x_54 x_64 x_74 x_84 x_94 x_104 x_114 x_124 x_134 x_144 x_154
 x_164 x_174 x_184 x_194 x_204 x_214 x_224 x_234 x_244 x_254 x_264 x_274
 x_05 x_15 x_25 x_35 x_45 x_55 x_65 x_75 x_85 x_95 x_105 x_115 x_125 x_135
 x_145 x_155 x_165 x_175 x_185 x_195 x_205 x_215 x_225 x_235 x_245 x_255
 x_265 x_275 x_285 x_295 x_305 x_315 x_06 x_16 x_26 x_36 x_46 x_56 x_66
 x_76 x_86 x_96 x_106 x_116 x_126 x_136 x_146 b_0 b_1 b_2 b_3 b_4 b_5 b_6
Generals
 s_0 s_1 s_2 s_3 s_4 s_5 s_6 e_0 e_1 e_2 e_3 e_4 e_5 e_6 u_0 u_1 u_2 u_3
 u_4 u_5 u_6
End
